solution status: optimal solution found
objective value:                     157644.048755089
d11(0,0)                                            1 	(obj:0)
d11(1,1)                                            1 	(obj:0)
d11(2,3)                                            1 	(obj:0)
d11(2,5)                                            1 	(obj:0)
d11(2,6)                                            1 	(obj:0)
d11(3,7)                                            1 	(obj:0)
d11(3,8)                                            1 	(obj:0)
d11(3,9)                                            1 	(obj:0)
d11(3,10)                                           1 	(obj:0)
d11(3,11)                                           1 	(obj:0)
d11(3,13)                                           1 	(obj:0)
d11(4,15)                                           1 	(obj:0)
d11(4,16)                                           1 	(obj:0)
d11(4,17)                                           1 	(obj:0)
d11(4,18)                                           1 	(obj:0)
d11(4,19)                                           1 	(obj:0)
d11(4,20)                                           1 	(obj:0)
d11(4,21)                                           1 	(obj:0)
d11(4,22)                                           1 	(obj:0)
d11(4,23)                                           1 	(obj:0)
d11(4,25)                                           1 	(obj:0)
d11(4,27)                                           1 	(obj:0)
d11(4,29)                                           1 	(obj:0)
d12(1,2)                                            1 	(obj:0)
d21(3,7)                                            1 	(obj:0)
d21(4,15)                                           1 	(obj:0)
d21(4,16)                                           1 	(obj:0)
d21(4,17)                                           1 	(obj:0)
d21(4,19)                                           1 	(obj:0)
d21(4,23)                                           1 	(obj:0)
d21(4,24)                                           1 	(obj:0)
d21(4,25)                                           1 	(obj:0)
d21(4,27)                                           1 	(obj:0)
STE(1,1)                             6698.24989888832 	(obj:0)
STE(0,0)                                         7875 	(obj:0)
STE(1,2)                             8074.66228671372 	(obj:0)
STE(2,3)                              4409.9999999995 	(obj:0)
STE(2,4)                             6068.24989888832 	(obj:0)
STE(2,5)                              5786.4123878249 	(obj:0)
STE(2,6)                             7444.66228671372 	(obj:0)
STE(3,7)                             2121.75010111066 	(obj:0)
STE(3,8)                             3779.99999999947 	(obj:0)
STE(3,9)                             3779.99999999947 	(obj:0)
STE(3,10)                            5438.24989888832 	(obj:0)
STE(3,11)                            3498.16248893605 	(obj:0)
STE(3,12)                             5156.4123878249 	(obj:0)
STE(3,13)                            5156.41238782487 	(obj:0)
STE(3,14)                            6814.66228671372 	(obj:0)
STE(4,15)                           -166.499797778189 	(obj:0)
STE(4,16)                            1491.75010111066 	(obj:0)
STE(4,17)                            1491.75010111063 	(obj:0)
STE(4,18)                                        3150 	(obj:0)
STE(4,19)                            1491.75010111063 	(obj:0)
STE(4,20)                            3149.99999999945 	(obj:0)
STE(4,21)                                        3150 	(obj:0)
STE(4,22)                            4808.24989888832 	(obj:0)
STE(4,23)                            1209.91259004721 	(obj:0)
STE(4,24)                            2868.16248893605 	(obj:0)
STE(4,25)                            2868.16248893605 	(obj:0)
STE(4,26)                             4526.4123878249 	(obj:0)
STE(4,27)                            2868.16248893603 	(obj:0)
STE(4,28)                            4526.41238782487 	(obj:0)
STE(4,29)                            4526.41238782487 	(obj:0)
STE(4,30)                            6184.66228671372 	(obj:0)
y1(3,11)                             1492.42490899996 	(obj:0)
y1(3,13)                             1492.42490899996 	(obj:0)
y1(4,15)                             1492.42490899996 	(obj:0)
y1(4,17)                             1492.42490899996 	(obj:0)
y1(4,19)                             1492.42490899996 	(obj:0)
y1(4,21)                             1492.42490899949 	(obj:0)
y1(4,23)                             1492.42490899996 	(obj:0)
y1(4,25)                             1492.42490899996 	(obj:0)
y1(4,27)                             1492.42490899996 	(obj:0)
y1(4,29)                             1492.42490899996 	(obj:0)
WB(1)                                3265.91696791192 	(obj:0)
AVE(1)                               3265.91696791192 	(obj:0)
WB(2)                                3332.74178563731 	(obj:0)
AVE(2)                               3332.74178563731 	(obj:0)
AVE(3)                               3444.11697932125 	(obj:0)
WB(4)                                3399.56511093778 	(obj:0)
AVE(4)                               3399.56511093778 	(obj:0)
WG(3)                                3444.11697932118 	(obj:10)
BG(1)                                3175.52737857199 	(obj:10)
BG(2)                                4196.29249897957 	(obj:10)
BG(3)                                752.175519658414 	(obj:10)
BG(4)                                4196.29249897959 	(obj:10)
y1(1,1)                              492.075091000511 	(obj:0)
y1(2,3)                              1492.42490899994 	(obj:0)
y1(2,5)                              1492.42490899994 	(obj:0)
y1(3,7)                              1492.42490899996 	(obj:0)
y1(3,9)                              1492.42490899996 	(obj:0)
y2(1,2)                              873.328722856545 	(obj:0)
